data_generator/10.atsp
NAME: 10
TYPE: ATSP
DIMENSION: 10
EDGE_WEIGHT_TYPE: EXPLICIT
EDGE_WEIGHT_FORMAT: FULL_MATRIX
EDGE_WEIGHT_SECTION
 999999 2 35 90 75 31 62 67 79 85
 11 999999 6 73 29 74 76 83 12 47
 62 33 999999 12 93 86 61 39 64 7
 66 15 3 999999 71 8 19 56 20 5
 66 42 21 57 999999 9 98 75 50 73
 19 62 66 8 61 999999 89 84 9 54
 2 52 28 64 32 10 999999 90 80 88
 54 1 57 68 35 43 95 999999 53 49
 60 22 63 25 30 20 84 21 999999 94
 40 95 53 74 91 16 96 65 52 999999
EOF
