data_generator/10.opt.tour
NAME : 10.opt.tour
TYPE : TOUR
DIMENSION : 10
COMMENT : OPTIMAL_COST = 143
TOUR_SECTION
1
2
9
8
5
3
10
6
4
7
-1
EOF
